167 10 88 89 16 139 138 69 152 48 169 97 166 96 104 31 93 161 125 199 155 0 49 168 129 174 26 23 164 87 178 12 180 78 146 40 83 136 171 68 14 72 38 187 70 121 122 92 43 59 52 123 117 144 135 18 191 50 118 36 195 61 34 29 143 99 1 47 140 91 116 177 54 112 86 25 162 130 147 94 55 150 27 11 114 105 103 182 81 113 24 19 163 132 46 20 181 9 141 8 101 115 4 176 2 82 39 5 58 149 63 154 3 42 76 90 53 153 62 15 151 157 183 106 133 156 79 193 173 64 159 85 95 142 84 17 188 186 13 67 32 165 44 98 77 30 56 71 134 160 75 126 108 124 145 45 137 119 179 80 33 148 185 37 65 51 7 120 189 100 194 197 73 111 60 170 6 131 66 74 158 35 128 107 198 175 196 190 28 127 57 102 110 192 21 184 172 41 22 109